25 50
1 2 2
1 6 1
2 3 1
2 7 5
3 4 4
3 8 1
4 5 5
4 9 1
5 10 1
6 7 5
6 11 3
7 8 2
7 12 4
8 9 3
8 13 3
9 10 2
9 14 2
10 15 4
11 12 1
11 16 1
12 13 5
12 17 1
13 14 4
13 18 3
14 15 2
14 19 5
15 20 3
16 17 4
16 21 1
17 18 5
17 22 1
18 19 1
18 23 2
19 20 4
19 24 3
20 25 1
21 22 4
22 23 5
23 24 3
24 25 1
1 21 2
2 22 3
3 23 5
4 24 1
5 25 3
1 5 5
6 10 4
11 15 5
16 20 4
21 25 4
